
<<< setup


<<< generate

Tried aggregator 1 time.
MIP Presolve eliminated 300 rows and 241 columns.
MIP Presolve modified 50 coefficients.
Reduced MIP has 479 rows, 402 columns, and 2071 nonzeros.
Reduced MIP has 350 binaries, 0 generals, 0 SOSs, and 0 indicators.
Presolve time = 0,00 sec. (1,23 ticks)
Probing fixed 0 vars, tightened 50 bounds.
Probing time = 0,00 sec. (3,88 ticks)
Cover probing fixed 0 vars, tightened 1 bounds.
Tried aggregator 1 time.
MIP Presolve modified 125 coefficients.
Reduced MIP has 479 rows, 402 columns, and 2071 nonzeros.
Reduced MIP has 350 binaries, 0 generals, 0 SOSs, and 0 indicators.
Presolve time = 0,00 sec. (1,01 ticks)
Probing time = 0,00 sec. (2,46 ticks)
Clique table members: 1462.
MIP emphasis: balance optimality and feasibility.
MIP search method: dynamic search.
Parallel mode: deterministic, using up to 4 threads.
Root relaxation solution time = 0,01 sec. (6,10 ticks)

        Nodes                                         Cuts/
   Node  Left     Objective  IInf  Best Integer    Best Bound    ItCnt     Gap

      0     0       23,9008   164                     23,9008      289         
      0     0       23,8280   150                   Cuts: 101      392         
      0     0       23,7924   134                   Cuts: 145      480         
      0     0       23,1547   126                   Cuts: 103      593         
      0     0       23,0632   104                   Cuts: 152      682         
      0     0       22,8001   118                    Cuts: 68      810         
      0     0       20,9287   113                    Cuts: 76      928         
      0     0       19,5666   116                    Cuts: 95     1043         
      0     0       18,7688   118                    Cuts: 81     1190         
      0     0       15,4060   107                    Cuts: 56     1437         
      0     0       15,1966   101                    Cuts: 65     1538         
      0     0       14,8722   109                    Cuts: 52     1656         
      0     0       14,8544   122                    Cuts: 31     1748         
      0     0       14,8473   119                    Cuts: 24     1821         
      0     0       14,8473   111                ZeroHalf: 19     1860         
      0     0       14,8473   106                ZeroHalf: 14     1876         
      0     2       14,8473    90                     14,5345     1876         
Elapsed time = 0,52 sec. (316,59 ticks, tree = 0,01 MB, solutions = 0)

Implied bound cuts applied:  5
Flow cuts applied:  44
Mixed integer rounding cuts applied:  33
Zero-half cuts applied:  8
Gomory fractional cuts applied:  6

Root node processing (before b&c):
  Real time             =    0,51 sec. (316,22 ticks)
Parallel b&c, 4 threads:
  Real time             =    0,28 sec. (206,19 ticks)
  Sync time (average)   =    0,07 sec.
  Wait time (average)   =    0,00 sec.
                          ------------
Total (root+branch&cut) =    0,79 sec. (522,41 ticks)

<<< solve


<<< no solution

